sat
(:added-eqs                   1052
 :arith-eq-adapter            627
 :arith-bound-propagations-lp 96
 :arith-branch                200
 :arith-conflicts             56
 :arith-cube-calls            50
 :arith-dio-calls             200
 :arith-diseq                 361
 :arith-fixed-eqs             42
 :arith-gcd-calls             201
 :arith-lower                 2126
 :arith-make-feasible         1240
 :arith-max-columns           837
 :arith-max-rows              302
 :arith-patches               201
 :arith-patches-success       1
 :arith-upper                 1654
 :binary-propagations         1017
 :conflicts                   87
 :decisions                   819
 :del-clause                  410
 :final-checks                201
 :max-memory                  24.79
 :memory                      20.38
 :mk-bool-var                 3523
 :mk-clause                   680
 :mk-clause-binary            398
 :num-allocs                  34331950
 :num-checks                  1
 :propagations                1211
 :rlimit-count                313225
 :solve-eqs-elim-vars         426
 :solve-eqs-steps             3065
 :time                        0.27
 :total-time                  0.37)
